p cnf 10 27
9 -10 0
1 0
8 9 4 6 0
-7 2 -2 7 0
-2 6 0
-4 -9 0
-7 0
-3 -1 0
7 0
9 4 -1 7 0
-7 0
-8 10 2 -1 0
-4 -2 6 0
9 2 -5 6 0
-7 2 4 -1 0
-3 -10 0
-7 3 -2 0
-6 -10 7 0
4 0
3 -9 0
-4 6 0
8 -8 0
9 6 0
-1 0
-7 10 -2 0
10 6 0
-8 -6 -2 7 0
